//Number of items      		
185
//Bin Capacity      
1000
//Known Best Solution  		
84
//Weight of Item
     798         2
     793         1
     790         1
     787         2
     772         1
     756         1
     750         1
     749         1
     743         1
     742         1
     737         1
     734         1
     731         1
     726         1
     725         2
     723         1
     717         1
     704         1
     703         1
     696         1
     695         1
     693         1
     689         1
     688         1
     685         1
     682         1
     681         1
     675         1
     673         1
     671         2
     667         1
     647         2
     640         1
     638         1
     637         1
     636         1
     630         1
     629         1
     628         1
     622         1
     620         1
     614         1
     606         1
     605         1
     604         1
     592         1
     591         1
     590         1
     587         1
     582         1
     581         1
     580         1
     579         1
     573         2
     570         1
     568         1
     565         1
     563         1
     561         1
     558         1
     556         1
     551         1
     547         1
     546         1
     540         1
     535         1
     525         1
     522         1
     518         1
     504         1
     501         2
     499         1
     497         1
     495         1
     493         1
     487         1
     482         1
     480         1
     479         1
     476         1
     475         1
     474         1
     473         1
     472         2
     466         1
     465         1
     462         1
     457         1
     453         1
     437         1
     436         1
     435         1
     434         1
     432         1
     431         1
     430         1
     428         1
     423         1
     417         2
     416         1
     408         1
     405         1
     366         1
     365         1
     364         1
     363         1
     362         2
     356         1
     355         1
     352         1
     351         2
     349         1
     346         1
     339         1
     329         1
     314         1
     312         1
     311         1
     310         1
     305         1
     303         1
     292         1
     288         2
     282         1
     281         1
     280         1
     279         1
     275         1
     271         1
     268         1
     256         1
     250         1
     247         1
     243         1
     239         1
     228         1
     222         1
     217         1
     212         1
     208         1
     206         1
     203         1
     202         1
     200         1
     195         1
     194         1
     187         1
     185         1
     178         1
     177         3
     171         1
     165         1
     155         1
     153         1
     152         1
     141         1
     137         1
     135         1
     133         1
     131         1
     130         1
     124         1
     122         1
     117         1
     109         1
      93         1
      76         1
      75         1
      72         1
      67         1
      60         1
      57         1
      53         2
      49         1
      44         1
      41         1
      40         1
      39         1
      27         1
      25         1
      21         1
      19         1
      18         1
      17         1
       5         1